Geographic Exponential Decay
80 155 208 140 7 215 184 76 258 174 15 303 96 115 129 262 119 46 10 59 281 67 259 56 151 200 277 279 71 12 287 73 122 247 209 39 311 26 21 285 186 138 16 240 109 30 137 74 261 183 32 180 68 13 269 20 300 266 72 304 248 38 256 41 126 143 252 190 221 229 3 199 220 128 85 295 17 224 42 207 111
p edge 320 682
e 0 256 84.0
e 1 107 11.0
e 2 155 38.0
e 3 219 17.0
e 3 161 49.0
e 3 111 9.0
e 3 276 24.0
e 3 38 96.0
e 3 203 56.0
e 3 98 73.0
e 3 248 32.0
e 3 132 3.0
e 4 84 1.0
e 5 96 72.0
e 5 316 12.0
e 5 193 13.0
e 6 195 2.0
e 6 38 58.0
e 6 30 63.0
e 7 158 97.0
e 7 182 64.0
e 7 313 74.0
e 7 307 59.0
e 7 287 56.0
e 7 153 98.0
e 7 172 48.0
e 7 227 8.0
e 7 109 2.0
e 8 139 2.0
e 9 177 1.0
e 10 168 68.0
e 10 52 84.0
e 10 182 60.0
e 10 274 85.0
e 10 47 95.0
e 10 138 60.0
e 10 21 5.0
e 10 104 34.0
e 10 283 50.0
e 11 135 9.0
e 11 287 75.0
e 12 87 68.0
e 12 65 78.0
e 12 6 17.0
e 12 104 84.0
e 12 9 42.0
e 12 252 29.0
e 12 270 96.0
e 12 88 85.0
e 12 260 82.0
e 13 269 21.0
e 13 73 23.0
e 13 121 49.0
e 13 281 95.0
e 13 151 23.0
e 13 149 14.0
e 13 119 89.0
e 13 275 84.0
e 13 158 39.0
e 14 147 7.0
e 14 148 13.0
e 14 141 5.0
e 15 212 38.0
e 15 85 55.0
e 15 48 94.0
e 15 307 96.0
e 15 82 11.0
e 15 115 96.0
e 15 279 65.0
e 15 287 13.0
e 15 147 73.0
e 16 14 24.0
e 16 210 14.0
e 16 193 67.0
e 16 120 72.0
e 16 237 8.0
e 16 102 89.0
e 16 215 70.0
e 16 133 16.0
e 16 167 26.0
e 17 152 42.0
e 17 33 52.0
e 17 188 93.0
e 17 18 9.0
e 17 317 60.0
e 17 110 67.0
e 17 281 58.0
e 17 210 36.0
e 17 24 63.0
e 19 48 21.0
e 19 18 24.0
e 19 118 1.0
e 20 261 16.0
e 20 116 42.0
e 20 262 80.0
e 20 108 43.0
e 20 139 88.0
e 20 196 43.0
e 20 172 98.0
e 20 78 7.0
e 20 148 35.0
e 21 217 75.0
e 21 294 21.0
e 21 124 73.0
e 21 45 30.0
e 21 17 90.0
e 21 242 47.0
e 21 228 78.0
e 21 74 64.0
e 22 2 4.0
e 23 176 10.0
e 23 244 9.0
e 24 259 77.0
e 25 129 74.0
e 26 194 39.0
e 26 303 6.0
e 26 202 24.0
e 26 42 92.0
e 26 270 84.0
e 26 289 20.0
e 26 201 88.0
e 26 25 53.0
e 26 283 16.0
e 27 276 4.0
e 27 52 2.0
e 28 308 38.0
e 28 26 43.0
e 28 113 34.0
e 28 5 48.0
e 28 197 40.0
e 29 238 2.0
e 30 161 3.0
e 30 202 13.0
e 30 318 64.0
e 30 231 92.0
e 30 294 23.0
e 30 37 27.0
e 30 258 42.0
e 30 226 86.0
e 31 123 1.0
e 32 188 23.0
e 32 212 38.0
e 32 54 90.0
e 32 23 5.0
e 32 47 9.0
e 32 86 27.0
e 32 109 48.0
e 32 198 41.0
e 32 259 5.0
e 34 201 1.0
e 35 135 3.0
e 36 157 1.0
e 38 203 77.0
e 38 62 33.0
e 38 171 67.0
e 38 49 89.0
e 38 141 99.0
e 38 310 1.0
e 38 85 27.0
e 39 66 21.0
e 39 91 3.0
e 39 144 39.0
e 39 234 31.0
e 39 263 100.0
e 39 15 22.0
e 39 306 40.0
e 39 13 58.0
e 39 301 73.0
e 40 192 3.0
e 41 263 71.0
e 41 306 66.0
e 41 61 72.0
e 41 255 87.0
e 41 35 98.0
e 41 228 56.0
e 41 38 3.0
e 41 281 46.0
e 41 31 72.0
e 42 45 17.0
e 42 258 82.0
e 42 175 81.0
e 42 101 54.0
e 42 257 64.0
e 42 239 72.0
e 42 184 14.0
e 42 27 36.0
e 43 49 1.0
e 44 93 5.0
e 46 252 11.0
e 46 187 82.0
e 46 110 94.0
e 46 10 24.0
e 46 304 16.0
e 46 262 78.0
e 46 317 100.0
e 46 20 31.0
e 46 66 42.0
e 50 288 1.0
e 51 24 8.0
e 53 153 3.0
e 55 231 2.0
e 56 229 40.0
e 56 11 2.0
e 56 28 96.0
e 56 226 5.0
e 56 236 100.0
e 56 29 71.0
e 56 96 19.0
e 56 151 73.0
e 56 19 79.0
e 57 123 6.0
e 58 240 3.0
e 59 94 35.0
e 59 70 34.0
e 59 96 38.0
e 59 22 85.0
e 59 127 38.0
e 59 303 25.0
e 59 60 48.0
e 59 149 73.0
e 59 287 63.0
e 61 55 14.0
e 61 240 54.0
e 62 21 48.0
e 62 136 4.0
e 63 204 3.0
e 64 50 1.0
e 66 167 5.0
e 67 244 45.0
e 67 272 11.0
e 67 56 95.0
e 67 217 36.0
e 67 313 90.0
e 67 30 81.0
e 67 12 23.0
e 67 245 73.0
e 67 75 98.0
e 68 51 80.0
e 68 53 38.0
e 68 237 81.0
e 68 255 1.0
e 68 140 79.0
e 68 150 37.0
e 68 185 18.0
e 68 32 26.0
e 68 86 56.0
e 69 37 3.0
e 71 73 27.0
e 71 54 55.0
e 71 208 27.0
e 71 144 44.0
e 71 264 43.0
e 71 229 32.0
e 71 40 18.0
e 71 117 72.0
e 71 206 99.0
e 72 66 47.0
e 72 195 2.0
e 72 184 8.0
e 72 60 20.0
e 72 293 16.0
e 72 221 70.0
e 72 116 6.0
e 72 224 72.0
e 72 190 79.0
e 73 101 70.0
e 73 16 63.0
e 73 178 73.0
e 73 305 20.0
e 73 67 30.0
e 73 302 14.0
e 73 133 45.0
e 74 249 55.0
e 74 157 28.0
e 74 258 85.0
e 74 302 2.0
e 74 169 19.0
e 74 96 92.0
e 74 102 25.0
e 74 262 75.0
e 76 305 27.0
e 76 39 14.0
e 76 191 52.0
e 76 61 7.0
e 76 199 26.0
e 76 227 21.0
e 76 154 61.0
e 76 263 25.0
e 76 81 43.0
e 77 218 4.0
e 79 189 2.0
e 80 314 1.0
e 82 125 1.0
e 83 318 1.0
e 85 105 89.0
e 85 111 50.0
e 85 191 12.0
e 85 68 88.0
e 85 181 96.0
e 85 145 46.0
e 85 108 11.0
e 89 311 19.0
e 90 194 9.0
e 90 211 3.0
e 92 57 8.0
e 92 226 22.0
e 95 142 2.0
e 96 203 7.0
e 96 33 39.0
e 96 109 53.0
e 96 221 59.0
e 96 124 87.0
e 97 289 8.0
e 97 75 3.0
e 99 8 8.0
e 99 204 2.0
e 100 89 4.0
e 101 243 8.0
e 103 127 1.0
e 105 126 43.0
e 106 197 1.0
e 106 34 10.0
e 107 58 11.0
e 109 3 27.0
e 109 80 77.0
e 109 98 1.0
e 109 243 95.0
e 109 294 7.0
e 109 36 72.0
e 110 196 8.0
e 111 286 29.0
e 111 282 89.0
e 111 187 16.0
e 111 41 90.0
e 111 90 65.0
e 111 271 66.0
e 111 164 91.0
e 112 304 49.0
e 114 177 1.0
e 115 4 29.0
e 115 42 31.0
e 115 43 78.0
e 115 44 48.0
e 115 97 87.0
e 115 236 5.0
e 115 46 80.0
e 115 159 12.0
e 119 295 17.0
e 119 178 60.0
e 119 205 92.0
e 119 100 9.0
e 119 151 16.0
e 119 220 93.0
e 119 69 45.0
e 119 186 56.0
e 121 267 3.0
e 122 78 77.0
e 122 319 8.0
e 122 287 42.0
e 122 268 21.0
e 122 88 92.0
e 122 81 44.0
e 122 288 49.0
e 122 59 44.0
e 122 289 25.0
e 126 184 21.0
e 126 83 24.0
e 126 142 22.0
e 126 284 54.0
e 126 207 56.0
e 126 109 85.0
e 126 235 22.0
e 126 62 52.0
e 127 198 4.0
e 128 63 80.0
e 128 118 100.0
e 128 64 92.0
e 128 73 72.0
e 128 65 71.0
e 128 272 4.0
e 128 290 14.0
e 128 7 83.0
e 128 165 55.0
e 129 207 2.0
e 129 70 71.0
e 129 225 36.0
e 129 130 87.0
e 129 112 51.0
e 129 107 88.0
e 129 199 29.0
e 129 134 26.0
e 131 71 24.0
e 132 308 10.0
e 137 222 13.0
e 137 72 25.0
e 137 303 14.0
e 137 91 61.0
e 137 132 26.0
e 137 312 51.0
e 137 284 32.0
e 137 161 24.0
e 137 74 11.0
e 138 140 21.0
e 138 143 79.0
e 138 246 47.0
e 138 76 48.0
e 138 280 12.0
e 138 77 25.0
e 138 154 1.0
e 138 129 14.0
e 140 79 19.0
e 140 82 71.0
e 140 229 25.0
e 140 84 13.0
e 140 301 72.0
e 140 295 37.0
e 140 249 96.0
e 143 260 36.0
e 143 309 36.0
e 143 238 24.0
e 143 85 91.0
e 143 145 56.0
e 143 264 54.0
e 143 168 36.0
e 143 87 82.0
e 146 117 2.0
e 151 170 74.0
e 151 92 19.0
e 151 120 50.0
e 151 269 76.0
e 151 180 87.0
e 151 159 43.0
e 155 242 22.0
e 155 93 59.0
e 155 106 27.0
e 155 298 65.0
e 155 199 85.0
e 155 113 83.0
e 155 94 3.0
e 155 125 50.0
e 156 95 1.0
e 159 167 41.0
e 159 96 42.0
e 159 1 41.0
e 160 99 10.0
e 162 192 2.0
e 162 101 17.0
e 163 275 1.0
e 164 110 15.0
e 166 103 11.0
e 166 150 1.0
e 173 111 79.0
e 174 213 27.0
e 174 207 28.0
e 174 105 44.0
e 174 114 38.0
e 174 115 100.0
e 174 159 51.0
e 174 119 70.0
e 174 180 4.0
e 174 199 51.0
e 179 121 9.0
e 180 199 2.0
e 180 189 39.0
e 180 250 62.0
e 180 277 47.0
e 180 122 16.0
e 180 126 39.0
e 180 226 51.0
e 182 130 13.0
e 183 136 62.0
e 183 227 50.0
e 183 127 55.0
e 183 261 53.0
e 183 128 57.0
e 183 131 33.0
e 183 134 46.0
e 183 247 14.0
e 183 265 68.0
e 184 137 59.0
e 184 299 29.0
e 184 138 60.0
e 184 140 84.0
e 184 143 81.0
e 184 146 4.0
e 186 265 13.0
e 186 151 69.0
e 186 152 36.0
e 186 230 36.0
e 186 154 83.0
e 186 155 77.0
e 186 286 48.0
e 186 156 8.0
e 190 157 78.0
e 190 199 44.0
e 190 290 60.0
e 190 163 80.0
e 190 160 28.0
e 190 295 54.0
e 190 162 20.0
e 190 164 49.0
e 199 165 85.0
e 199 166 33.0
e 199 278 16.0
e 200 167 14.0
e 200 298 91.0
e 200 277 32.0
e 200 169 87.0
e 200 170 12.0
e 200 171 46.0
e 200 173 79.0
e 200 174 66.0
e 200 291 70.0
e 207 247 49.0
e 207 273 2.0
e 207 291 66.0
e 207 250 81.0
e 207 175 99.0
e 207 245 15.0
e 208 298 17.0
e 208 227 74.0
e 208 316 38.0
e 208 176 92.0
e 208 268 86.0
e 208 178 30.0
e 208 179 26.0
e 208 180 37.0
e 209 293 84.0
e 209 181 28.0
e 209 182 11.0
e 209 183 37.0
e 209 184 39.0
e 209 240 30.0
e 209 220 43.0
e 209 254 40.0
e 209 215 24.0
e 213 310 10.0
e 214 185 3.0
e 214 186 83.0
e 215 187 98.0
e 215 253 37.0
e 215 190 12.0
e 215 199 2.0
e 215 200 98.0
e 215 205 25.0
e 215 309 19.0
e 216 206 1.0
e 220 317 47.0
e 220 207 17.0
e 220 208 6.0
e 220 211 77.0
e 220 212 27.0
e 220 213 90.0
e 220 214 96.0
e 221 277 14.0
e 221 292 49.0
e 221 314 3.0
e 221 209 9.0
e 221 215 85.0
e 221 216 82.0
e 221 218 26.0
e 223 219 2.0
e 224 220 76.0
e 224 221 88.0
e 224 222 21.0
e 224 223 25.0
e 224 225 4.0
e 224 285 89.0
e 224 295 56.0
e 224 227 8.0
e 229 246 88.0
e 229 224 36.0
e 229 271 74.0
e 229 225 88.0
e 229 227 19.0
e 229 230 54.0
e 232 258 82.0
e 233 229 62.0
e 234 232 28.0
e 234 233 13.0
e 234 235 18.0
e 234 246 8.0
e 240 234 1.0
e 240 273 11.0
e 240 252 31.0
e 240 235 35.0
e 240 295 97.0
e 240 239 81.0
e 241 240 40.0
e 247 241 30.0
e 247 246 26.0
e 247 249 89.0
e 247 248 88.0
e 247 311 53.0
e 247 251 49.0
e 247 252 35.0
e 248 311 95.0
e 248 249 79.0
e 248 292 58.0
e 248 251 99.0
e 248 252 90.0
e 248 253 61.0
e 248 254 56.0
e 252 256 63.0
e 252 295 97.0
e 252 257 9.0
e 252 258 10.0
e 256 247 74.0
e 256 248 93.0
e 256 258 63.0
e 256 259 82.0
e 256 261 15.0
e 256 262 100.0
e 256 319 100.0
e 258 259 58.0
e 258 261 100.0
e 258 262 77.0
e 259 252 97.0
e 259 261 48.0
e 259 262 65.0
e 259 266 35.0
e 259 303 71.0
e 261 262 95.0
e 261 266 9.0
e 261 267 58.0
e 261 268 64.0
e 262 287 18.0
e 262 266 71.0
e 266 282 44.0
e 266 256 49.0
e 266 258 57.0
e 266 267 95.0
e 266 268 89.0
e 266 269 81.0
e 269 259 38.0
e 269 261 48.0
e 269 262 77.0
e 269 0 57.0
e 269 267 91.0
e 269 271 27.0
e 277 311 54.0
e 277 266 32.0
e 277 269 6.0
e 277 274 5.0
e 277 278 97.0
e 277 279 90.0
e 279 280 26.0
e 279 281 12.0
e 279 285 12.0
e 279 287 57.0
e 279 295 42.0
e 279 296 78.0
e 279 311 10.0
e 281 277 96.0
e 281 285 99.0
e 281 287 16.0
e 281 299 14.0
e 281 295 61.0
e 285 287 11.0
e 285 295 30.0
e 285 296 26.0
e 285 297 38.0
e 285 299 42.0
e 285 300 3.0
e 297 279 17.0
e 300 281 48.0
e 300 287 2.0
e 300 295 53.0
e 300 297 71.0
e 300 303 13.0
e 300 304 42.0
e 300 311 49.0
e 300 312 13.0
e 303 285 45.0
e 303 304 26.0
e 303 311 97.0
e 303 312 43.0
e 304 311 45.0
e 304 312 1.0
e 304 315 51.0
e 304 319 75.0
e 311 315 93.0
